qe/outputs/qe/cbrdelay_obs_newl/T=5,eliminate=[I_0,I_1,I_2,I_3,I_4,C,B,lhs=L_4],pl=2.smt2
; benchmark generated from python API
(set-info :status unknown)
(declare-fun L_0 () Real)
(declare-fun S_1 () Real)
(declare-fun A_0 () Real)
(declare-fun S_3 () Real)
(declare-fun S_4 () Real)
(declare-fun A_1 () Real)
(declare-fun L_1 () Real)
(declare-fun S_0 () Real)
(declare-fun L_4 () Real)
(declare-fun A_4 () Real)
(declare-fun L_2 () Real)
(declare-fun A_2 () Real)
(declare-fun A_3 () Real)
(declare-fun L_3 () Real)
(declare-fun S_2 () Real)
(assert
 (let (($x2877 (<= (+ (* (- 1.0) S_3) (* (- 1.0) A_0) (* 2.0 S_1) L_0) 0.0)))
 (let (($x34 (>= L_0 0.0)))
 (let ((?x1439 (* 5.0 L_4)))
 (let ((?x3000 (* (- 2.0) S_0)))
 (let ((?x1438 (* (- 5.0) A_4)))
 (let ((?x8142 (* (- 5.0) L_2)))
 (let ((?x5133 (* 5.0 A_2)))
 (let ((?x3190 (* 2.0 S_4)))
 (let (($x18810 (<= (+ ?x3190 ?x5133 ?x8142 ?x1438 ?x3000 ?x1439) 0.0)))
 (let ((?x1158 (* 3.0 L_4)))
 (let ((?x1240 (* (- 3.0) A_4)))
 (let ((?x348 (* (- 1.0) S_3)))
 (let ((?x1072 (* 3.0 A_1)))
 (let ((?x1071 (* (- 3.0) L_1)))
 (let ((?x1180 (* 3.0 A_3)))
 (let ((?x1305 (* (- 3.0) L_3)))
 (let (($x18153 (<= (+ ?x1305 ?x1180 ?x1071 ?x1072 ?x348 ?x1240 ?x3000 ?x1158) 0.0)))
 (let (($x81 (= L_4 L_3)))
 (let (($x51701 (<= (+ (* (- 1.0) L_3) A_3 (* (- 1.0) A_4) L_4) (- 10.0))))
 (let (($x60375 (or $x81 $x51701 (<= (+ (* (- 1.0) L_1) A_1 (* (- 1.0) A_4) L_4) (- 20.0)) (<= (+ (* (- 1.0) A_4) S_0 L_4) (- 25.0)))))
 (let ((?x1164 (* 2.0 L_4)))
 (let ((?x1101 (* (- 1.0) S_0)))
 (let ((?x1154 (* (- 2.0) A_4)))
 (let ((?x236 (* (- 1.0) L_1)))
 (let ((?x1204 (* 2.0 A_3)))
 (let ((?x1413 (* (- 2.0) L_3)))
 (let (($x56398 (<= (+ ?x1413 ?x1204 ?x236 A_1 ?x1154 ?x1101 ?x1164) (- 5.0))))
 (let ((?x1427 (* 4.0 L_4)))
 (let ((?x1426 (* (- 4.0) A_4)))
 (let ((?x1094 (* (- 4.0) L_2)))
 (let ((?x1093 (* 4.0 A_2)))
 (let ((?x3601 (* 2.0 S_3)))
 (let (($x25035 (<= (+ ?x3601 ?x1093 ?x1094 ?x1426 ?x3000 ?x1427) 0.0)))
 (let ((?x341 (* (- 1.0) S_2)))
 (let ((?x885 (* 2.0 A_1)))
 (let ((?x976 (* (- 2.0) L_1)))
 (let (($x18149 (<= (+ ?x1413 ?x1204 ?x976 ?x885 ?x1154 ?x341 ?x1101 ?x1164) 0.0)))
 (let ((?x2656 (* 2.0 S_1)))
 (let ((?x902 (* (- 2.0) L_2)))
 (let ((?x998 (* 2.0 A_2)))
 (let (($x20906 (<= (+ ?x998 ?x902 ?x1154 ?x2656 ?x3000 ?x1164) 0.0)))
 (let ((?x17181 (* (/ 3.0 2.0) L_4)))
 (let ((?x3231 (* (- (/ 1.0 2.0)) S_0)))
 (let ((?x17229 (* (- (/ 3.0 2.0)) A_4)))
 (let ((?x20914 (* (- (/ 1.0 2.0)) L_2)))
 (let ((?x19100 (* (/ 1.0 2.0) A_2)))
 (let ((?x2512 (* (/ 3.0 2.0) A_3)))
 (let ((?x1897 (* (- (/ 3.0 2.0)) L_3)))
 (let (($x57893 (<= (+ ?x1897 ?x2512 ?x19100 ?x20914 ?x17229 ?x3231 ?x17181) (- 5.0))))
 (let ((?x3659 (* (- (/ 2.0 3.0)) S_0)))
 (let ((?x3653 (* (/ 2.0 3.0) S_2)))
 (let ((?x369 (* (- 1.0) A_4)))
 (let (($x3671 (<= (+ ?x236 A_2 ?x369 ?x3653 ?x3659 L_4) 0.0)))
 (let (($x61 (= L_2 L_1)))
 (let (($x2591 (not $x61)))
 (let (($x2661 (<= (+ (* (- 1.0) L_3) A_3 ?x236 A_1 ?x369 (* (- 1.0) S_1) L_4) 0.0)))
 (let (($x58302 (<= (+ ?x1413 ?x1204 A_2 (* (- 1.0) L_2) ?x1154 (* (- 1.0) S_1) ?x1164) (- 5.0))))
 (let ((?x2761 (* 2.0 S_2)))
 (let ((?x1080 (* (- 3.0) L_2)))
 (let ((?x1079 (* 3.0 A_2)))
 (let (($x26645 (<= (+ ?x1079 ?x1080 ?x1240 ?x2761 ?x3000 ?x1158) 0.0)))
 (let (($x36578 (<= (+ ?x1413 ?x1204 ?x348 ?x998 ?x902 ?x1154 (* (- 1.0) S_1) ?x1164) 0.0)))
 (let (($x34895 (<= (+ ?x1897 ?x2512 ?x348 (* (/ 3.0 2.0) A_2) (* (- (/ 3.0 2.0)) L_2) ?x17229 ?x3231 ?x17181) 0.0)))
 (let (($x24534 (<= (+ A_2 (* (- 1.0) L_2) ?x369 S_2 (* (- 1.0) S_1) L_4) 0.0)))
 (let (($x37205 (<= (+ ?x1413 ?x1204 ?x348 ?x998 ?x902 ?x1154 (* (- 1.0) A_0) ?x1164 L_0) 0.0)))
 (let ((?x1125 (* (- 1.0) A_0)))
 (let ((?x253 (* (- 1.0) L_2)))
 (let (($x57298 (<= (+ ?x1413 ?x1204 A_2 ?x253 ?x1154 ?x1125 ?x1164 L_0) (- 5.0))))
 (let ((?x363 (* (- 1.0) A_2)))
 (let ((?x270 (* (- 1.0) L_3)))
 (let (($x28051 (<= (+ ?x270 A_3 ?x976 ?x885 ?x363 L_2 ?x369 ?x1101 L_4) 0.0)))
 (let ((?x757 (+ L_1 ?x253)))
 (let (($x491 (<= 0.0 ?x757)))
 (let (($x60064 (or $x81 (<= (+ ?x1305 ?x1180 ?x1240 S_2 ?x1101 ?x1158) (- 15.0)) (<= (+ ?x369 (* (/ 5.0 3.0) S_2) ?x3659 L_4) (- 5.0)))))
 (let (($x2675 (<= (+ ?x270 A_3 ?x236 A_1 ?x369 ?x1125 L_4 L_0) 0.0)))
 (let (($x24995 (<= (+ S_3 (* (/ 3.0 2.0) A_2) (* (- (/ 3.0 2.0)) L_2) ?x17229 ?x1125 ?x17181 L_0) 0.0)))
 (let (($x20947 (<= (+ ?x19100 ?x20914 (* (- (/ 1.0 2.0)) A_4) ?x1125 S_1 (* (/ 1.0 2.0) L_4) L_0) 0.0)))
 (let (($x28053 (<= (+ ?x270 A_3 A_2 ?x253 ?x369 ?x341 L_4) 0.0)))
 (let (($x59908 (or $x81 (<= (+ ?x1413 ?x1204 ?x1154 S_2 (* (- 1.0) S_1) ?x1164) (- 10.0)) (<= (+ ?x369 ?x2761 (* (- 1.0) S_1) L_4) (- 5.0)))))
 (let (($x18112 (<= (+ S_4 ?x998 ?x902 ?x1154 (* (- 1.0) S_1) ?x1164) 0.0)))
 (let ((?x287 (* (- 1.0) L_4)))
 (let ((?x366 (* (- 1.0) A_3)))
 (let ((?x5198 (+ L_3 ?x366 ?x236 A_1 ?x363 L_2 A_4 ?x287)))
 (let (($x54469 (<= 0.0 ?x5198)))
 (let ((?x335 (* (- 1.0) S_1)))
 (let ((?x20937 (* (- (/ 3.0 2.0)) L_2)))
 (let ((?x18483 (* (/ 3.0 2.0) A_2)))
 (let (($x24566 (<= (+ S_3 ?x18483 ?x20937 ?x17229 ?x335 ?x17181) 0.0)))
 (let (($x58327 (<= (+ (* 2.0 L_3) (* (- 2.0) A_3) ?x3190 ?x363 L_2 S_0) (- 5.0))))
 (let (($x120257 (or $x61 (<= (+ L_3 ?x366 S_4 ?x236 A_1 ?x363 L_2) (- 5.0)) $x58327)))
 (let ((?x1306 (* (- 2.0) A_3)))
 (let ((?x1168 (* 2.0 L_3)))
 (let (($x5199 (<= ?x5198 0.0)))
 (let (($x120579 (or $x61 $x5199 (<= (+ ?x1168 ?x1306 S_4 ?x363 L_2 A_4 S_0 ?x287) 0.0))))
 (let ((?x1188 (* (- 2.0) L_4)))
 (let ((?x1190 (* 2.0 A_4)))
 (let ((?x972 (* 2.0 L_2)))
 (let ((?x879 (* (- 2.0) A_2)))
 (let (($x122645 (or $x61 $x5199 (<= (+ ?x1168 ?x1306 ?x879 ?x972 ?x1190 S_2 S_0 ?x1188) 0.0))))
 (let (($x7133 (<= (+ ?x976 ?x885 ?x1154 (* 3.0 S_1) (* (- 3.0) S_0) ?x1164) 0.0)))
 (let (($x26950 (<= (+ A_2 ?x253 ?x369 ?x1125 S_2 L_4 L_0) 0.0)))
 (let ((?x2317 (* (- 3.0) S_0)))
 (let ((?x1098 (* 5.0 A_1)))
 (let ((?x1097 (* (- 5.0) L_1)))
 (let ((?x2438 (* 3.0 S_4)))
 (let (($x11107 (<= (+ ?x2438 ?x1097 ?x1098 ?x1438 ?x2317 ?x1439) 0.0)))
 (let ((?x2247 (* 3.0 S_3)))
 (let ((?x1086 (* 4.0 A_1)))
 (let ((?x1085 (* (- 4.0) L_1)))
 (let (($x34678 (<= (+ ?x1085 ?x1086 ?x2247 ?x1426 ?x2317 ?x1427) 0.0)))
 (let ((?x1421 (* (- 3.0) L_4)))
 (let ((?x1420 (* 3.0 A_4)))
 (let ((?x1431 (* (- 4.0) A_3)))
 (let ((?x1430 (* 4.0 L_3)))
 (let (($x52328 (<= (+ ?x1430 ?x1431 ?x1420 S_0 ?x1421) (- 5.0))))
 (let (($x1972 (<= (+ ?x270 A_3 A_1 ?x369 ?x1101 L_4 (* (- 1.0) L_0)) 0.0)))
 (let (($x71 (= L_3 L_2)))
 (let ((?x2292 (* (/ 2.0 3.0) L_4)))
 (let ((?x2285 (* (- (/ 2.0 3.0)) A_4)))
 (let ((?x2294 (* (/ 2.0 3.0) A_1)))
 (let ((?x2276 (* (- (/ 2.0 3.0)) L_1)))
 (let ((?x2333 (* 3.0 L_0)))
 (let ((?x2288 (* 3.0 S_2)))
 (let ((?x2332 (* (- 3.0) A_0)))
 (let (($x2335 (<= (+ ?x976 ?x885 ?x1154 ?x2332 ?x2288 ?x1164 ?x2333) 0.0)))
 (let ((?x5358 (* (/ 1.0 2.0) L_4)))
 (let ((?x5331 (* (- (/ 1.0 2.0)) A_4)))
 (let ((?x7392 (* (- (/ 1.0 2.0)) A_1)))
 (let ((?x7385 (* (/ 1.0 2.0) L_1)))
 (let ((?x2854 (* (/ 1.0 2.0) A_3)))
 (let ((?x2936 (* (- (/ 1.0 2.0)) L_3)))
 (let ((?x2302 (* (/ 1.0 3.0) L_4)))
 (let ((?x2301 (* (- (/ 1.0 3.0)) A_4)))
 (let (($x51 (= L_1 L_0)))
 (let (($x59265 (or $x51 $x81 (<= (+ (* (/ 2.0 3.0) L_1) (* (- (/ 2.0 3.0)) A_1) ?x2301 S_2 ?x2302) (- 5.0)) (<= (+ ?x2936 ?x2854 ?x7385 ?x7392 ?x5331 (* (/ 1.0 2.0) S_2) ?x5358) (- 5.0)))))
 (let ((?x7141 (+ ?x236 A_1 ?x369 L_4)))
 (let (($x53325 (<= ?x7141 (- 15.0))))
 (let (($x121643 (or $x81 $x53325 (<= (+ ?x270 A_3 ?x236 A_1 ?x369 ?x341 L_4) (- 5.0)))))
 (let (($x59199 (or $x71 (<= (+ L_3 ?x366 (* (/ 3.0 2.0) S_2) (* (- (/ 1.0 2.0)) S_1)) (- 5.0)))))
 (let ((?x1074 (* 3.0 L_2)))
 (let ((?x1073 (* (- 3.0) A_2)))
 (let ((?x11753 (+ ?x976 ?x885 ?x1073 ?x1074 A_4 ?x287)))
 (let (($x53226 (<= 0.0 ?x11753)))
 (let ((?x12386 (* (- (/ 3.0 2.0)) L_4)))
 (let ((?x17290 (* (/ 3.0 2.0) A_4)))
 (let ((?x20939 (* (/ 3.0 2.0) L_2)))
 (let ((?x15988 (* (- (/ 3.0 2.0)) A_2)))
 (let (($x1595 (not $x81)))
 (let (($x120053 (or $x71 $x1595 $x52328 (<= (+ L_3 (* (- 3.0) A_3) ?x236 A_1 ?x1190) (- 5.0)))))
 (let (($x121279 (or $x81 (<= (+ ?x976 ?x885 ?x1154 ?x2288 (* (- 3.0) S_1) ?x1164) 0.0) $x2661)))
 (let (($x58753 (or $x81 (not (<= 0.0 (+ L_3 ?x366 L_1 (* (- 1.0) A_1) ?x2761))) (<= (+ ?x270 A_3 L_1 (* (- 1.0) A_1) ?x369 S_2 L_4) (- 5.0)))))
 (let (($x58749 (or $x81 (<= (+ ?x369 S_1 L_4) (- 20.0)) (<= (- 5.0) (+ (* (/ 1.0 2.0) L_3) (* (- (/ 1.0 2.0)) A_3) (* (/ 1.0 2.0) S_1))))))
 (let (($x58701 (or $x81 (<= (+ ?x369 (* (/ 5.0 2.0) S_1) (* (- (/ 3.0 2.0)) S_0) L_4) (- 5.0)) (<= (+ ?x270 A_3 ?x369 (* (/ 1.0 2.0) S_1) ?x3231 L_4) (- 5.0)))))
 (let (($x58538 (or $x81 (<= (+ ?x270 A_3 ?x369 ?x1125 S_1 L_4 L_0) (- 5.0)) (<= (+ ?x369 ?x2332 (* 4.0 S_1) L_4 ?x2333) (- 5.0)))))
 (let (($x50998 (not (<= 0.0 (+ ?x270 L_2)))))
 (let (($x120168 (or $x81 (<= (+ A_3 ?x253 ?x369 (* (/ 1.0 2.0) S_1) ?x3231 L_4) 0.0) $x50998)))
 (let (($x58349 (or $x71 (<= (+ L_3 ?x366 (* (/ 3.0 4.0) S_4) (* (/ 1.0 4.0) S_0)) (- 5.0)) (<= (+ (* 3.0 L_3) (* (- 3.0) A_3) ?x3190 ?x236 A_1) (- 15.0)))))
 (let (($x69127 (or $x61 (<= ?x11753 (- 10.0)) (<= (+ ?x879 ?x972 A_4 S_0 ?x287) (- 5.0)))))
 (let (($x58246 (or $x61 (<= (+ ?x236 A_1 ?x363 L_2) (- 10.0)) (<= (+ ?x363 L_2 S_0) (- 15.0)))))
 (let (($x121796 (or $x81 $x2661 (<= (+ ?x2438 ?x1085 ?x1086 ?x1426 (* (- 3.0) S_1) ?x1427) 0.0))))
 (let ((?x2314 (* 3.0 S_0)))
 (let ((?x2213 (* (- 3.0) S_3)))
 (let ((?x970 (* (- 2.0) A_1)))
 (let ((?x961 (* 2.0 L_1)))
 (let (($x1103 (<= (+ S_4 ?x1097 ?x1098 (* (- 5.0) A_2) (* 5.0 L_2) ?x1101) 0.0)))
 (let (($x55809 (<= (+ L_3 ?x366 (* (- 2.0) A_0) (* 3.0 S_1) (* 2.0 L_0)) (- 5.0))))
 (let (($x120324 (or $x81 $x2675 (<= (+ ?x236 A_1 ?x369 ?x2332 (* 3.0 S_1) L_4 ?x2333) 0.0))))
 (let (($x57652 (or $x81 (<= (+ ?x961 ?x970 ?x369 ?x2288 L_4) (- 5.0)) (<= 0.0 (+ (* (/ 1.0 2.0) L_3) (* (- (/ 1.0 2.0)) A_3) ?x7385 ?x7392 S_2)))))
 (let (($x124073 (or $x61 (<= (+ ?x15988 ?x20939 (* (/ 1.0 2.0) A_4) S_1 (* (- (/ 1.0 2.0)) L_4)) (- 5.0)))))
 (let (($x121994 (or $x491 (<= (+ ?x976 ?x885 (* (- 2.0) S_3) ?x363 L_2 A_4 ?x287) 0.0) (<= (+ ?x348 ?x363 L_2 A_4 S_0 ?x287) 0.0))))
 (let (($x123614 (or $x71 (<= (+ ?x1168 ?x1306 ?x348 ?x1190 S_0 ?x1188) 0.0) (<= (+ L_3 ?x366 ?x236 A_1 ?x348 A_4 ?x287) 0.0))))
 (let (($x6508 (<= (+ ?x1085 ?x1086 S_3 (* (- 4.0) A_2) (* 4.0 L_2) ?x1101) 0.0)))
 (let (($x122106 (or $x51 (<= (+ L_3 ?x366 L_1 (* (- 1.0) A_1) A_4 S_0 ?x287) 0.0))))
 (let (($x119015 (or (<= (+ L_3 ?x366 S_4 (* (- (/ 1.0 2.0)) S_3) (* (/ 1.0 2.0) S_0)) 0.0) (<= (+ L_3 ?x366 S_4 A_1 ?x348 (* (- 1.0) L_0)) 0.0))))
 (let (($x119020 (or $x81 (<= (+ L_3 ?x366 ?x3190 ?x236 A_1 ?x348 ?x369 L_4) 0.0))))
 (let (($x28032 (<= (+ ?x270 A_3 L_1 (* (- 1.0) A_1) ?x348 ?x998 ?x902 ?x369 L_4) 0.0)))
 (let (($x16802 (<= (+ ?x363 L_2 A_4 (* (- 2.0) S_2) (* 2.0 S_0) ?x287) 0.0)))
 (let (($x2991 (<= (+ ?x236 A_1 ?x341) 0.0)))
 (let (($x120541 (or $x51 (<= (+ L_3 ?x366 S_4 L_1 (* (- 1.0) A_1) S_0) (- 5.0)))))
 (let (($x1127 (<= (+ S_4 ?x1085 ?x1086 (* (- 4.0) A_2) (* 4.0 L_2) ?x1125 L_0) 0.0)))
 (let (($x1090 (<= (+ S_4 ?x1085 ?x1086 (* (- 4.0) A_2) (* 4.0 L_2) ?x335) 0.0)))
 (let ((?x7405 (* (/ 5.0 2.0) A_1)))
 (let ((?x7404 (* (- (/ 5.0 2.0)) L_1)))
 (let ((?x7403 (* (- (/ 5.0 2.0)) A_3)))
 (let ((?x7402 (* (/ 5.0 2.0) L_3)))
 (let ((?x6630 (* (- 4.0) L_0)))
 (let ((?x1088 (* 4.0 L_2)))
 (let ((?x1087 (* (- 4.0) A_2)))
 (let (($x479 (not (<= 0.0 (+ ?x236 L_0)))))
 (let (($x7541 (<= (+ (* 3.0 L_3) (* (- 3.0) A_3) ?x1079 ?x1080 S_2 ?x1101) 0.0)))
 (let (($x55859 (<= (+ L_3 ?x366 (* (- (/ 1.0 2.0)) A_0) (* (/ 3.0 2.0) S_2) (* (/ 1.0 2.0) L_0)) (- 5.0))))
 (let (($x57091 (<= (+ (* 3.0 L_3) (* (- 3.0) A_3) (* 4.0 S_2) ?x1101) (- 15.0))))
 (let (($x1429 (<= (+ (* (- 4.0) L_3) (* 4.0 A_3) S_4 ?x1426 ?x335 ?x1427) 0.0)))
 (let (($x119924 (or $x81 (<= (+ ?x1305 ?x1180 S_4 L_1 (* (- 1.0) A_1) ?x1240 ?x1158) 0.0))))
 (let (($x7981 (<= (+ (* 5.0 L_3) (* (- 5.0) A_3) S_4 ?x5133 ?x8142 ?x1101) 0.0)))
 (let (($x119314 (or $x61 (<= (+ L_3 ?x366 ?x236 A_1 ?x879 ?x972 A_4 S_2 ?x287) 0.0))))
 (let (($x124156 (or $x71 (<= (+ L_3 ?x366 L_1 (* (- 1.0) A_1) A_2 ?x253 S_2) 0.0))))
 (let (($x60469 (or $x61 (<= (+ ?x1413 ?x1204 ?x1073 ?x1074 S_0) (- 5.0)) (<= (+ ?x270 A_3 ?x236 A_1 ?x879 ?x972) (- 5.0)))))
 (let (($x7419 (<= (+ ?x1430 ?x1431 ?x3190 ?x1085 ?x1086 (* (- 2.0) A_0) (* 2.0 L_0)) 0.0)))
 (let (($x56694 (or $x71 (<= (+ L_3 ?x366 (* (/ 2.0 3.0) S_4) (* (/ 1.0 3.0) S_1)) (- 5.0)))))
 (let (($x122384 (or (<= (+ S_4 ?x976 ?x885 ?x2213) 0.0) (<= (+ (* (/ 1.0 2.0) S_4) ?x348 (* (/ 1.0 2.0) S_0)) 0.0))))
 (let (($x425 (not (<= 0.0 (+ L_3 ?x287)))))
 (let (($x119613 (or $x61 $x425 (<= (+ ?x366 ?x236 A_1 ?x879 ?x972 A_4 S_2) 0.0))))
 (let ((?x7091 (+ ?x1413 ?x1204 ?x1154 ?x1125 S_2 ?x1164 L_0)))
 (let (($x51795 (<= ?x7091 (- 10.0))))
 (let (($x55516 (<= (+ ?x270 A_3 L_1 (* (- 1.0) A_1) A_2 ?x253 ?x369 L_4) (- 5.0))))
 (let ((?x2308 (* (- (/ 1.0 3.0)) L_4)))
 (let ((?x2307 (* (/ 1.0 3.0) A_4)))
 (let (($x121120 (or $x51 (<= (+ (* (/ 4.0 3.0) L_1) (* (- (/ 4.0 3.0)) A_1) ?x2307 S_0 ?x2308) (- 5.0)))))
 (let ((?x361 (* (- 1.0) A_1)))
 (let ((?x1419 (* (- 3.0) A_3)))
 (let ((?x1184 (* 3.0 L_3)))
 (let (($x119077 (or $x61 (<= (+ ?x1413 ?x1204 ?x348 ?x879 ?x972 S_0) 0.0) (<= (+ ?x270 A_3 ?x236 A_1 ?x348 ?x363 L_2) 0.0))))
 (let (($x119508 (or $x61 (<= (+ S_4 ?x976 ?x885 ?x1073 ?x1074) (- 15.0)) (<= (+ (* (/ 1.0 2.0) S_4) ?x363 L_2 (* (/ 1.0 2.0) S_0)) (- 5.0)))))
 (let (($x119392 (or $x81 (<= (+ ?x3190 ?x1079 ?x1080 ?x1240 (* (- 2.0) S_2) ?x1158) 0.0) $x28053)))
 (let ((?x5334 (* (- (/ 1.0 2.0)) L_4)))
 (let ((?x5332 (* (/ 1.0 2.0) A_4)))
 (let ((?x20921 (* (/ 1.0 2.0) L_2)))
 (let ((?x19152 (* (- (/ 1.0 2.0)) A_2)))
 (let (($x54971 (or (<= (+ (* (- (/ 1.0 2.0)) S_3) (* (/ 1.0 2.0) S_0)) (- 5.0)) (<= (+ ?x236 A_1 ?x348) (- 5.0)))))
 (let (($x54964 (or $x51 (<= (+ S_4 (* 4.0 L_1) (* (- 4.0) A_1) ?x2314) (- 20.0)))))
 (let (($x54932 (or $x51 $x71 (<= (+ (* (/ 1.0 2.0) L_3) (* (- (/ 1.0 2.0)) A_3) ?x7385 ?x7392 S_2) (- 5.0)))))
 (let ((?x12314 (* (- (/ 2.0 3.0)) L_4)))
 (let ((?x12324 (* (/ 2.0 3.0) A_4)))
 (let ((?x2300 (* (/ 1.0 3.0) A_1)))
 (let ((?x2257 (* (- (/ 1.0 3.0)) L_1)))
 (let (($x7344 (<= (+ L_3 ?x366 ?x236 A_1 (* (- 2.0) A_0) ?x2656 (* 2.0 L_0)) 0.0)))
 (let (($x120417 (or $x51 (<= (+ ?x2936 ?x2854 (* (/ 3.0 2.0) L_1) (* (- (/ 3.0 2.0)) A_1) S_0) (- 5.0)))))
 (let (($x1441 (<= (+ (* (- 5.0) L_3) (* 5.0 A_3) S_4 ?x1438 ?x1101 ?x1439) 0.0)))
 (let (($x123211 (or $x61 $x1595 (<= (+ ?x270 (* (- 2.0) S_3) ?x363 L_2 A_4 ?x2656) 0.0))))
 (let ((?x7379 (* (/ 3.0 2.0) A_1)))
 (let ((?x7368 (* (- (/ 3.0 2.0)) L_1)))
 (let ((?x2981 (* (- (/ 3.0 2.0)) A_3)))
 (let ((?x3165 (* (/ 3.0 2.0) L_3)))
 (let (($x10397 (<= (+ ?x1168 ?x1306 ?x976 ?x885 (* (- 2.0) A_0) ?x2761 (* 2.0 L_0)) 0.0)))
 (let (($x17900 (<= (+ (* (/ 1.0 3.0) L_1) (* (- (/ 1.0 3.0)) A_1) ?x2307 ?x341 S_0 ?x2308) 0.0)))
 (let (($x121360 (or $x61 $x479 (<= (+ ?x1072 S_3 ?x1073 ?x1074 ?x1125 (* (- 2.0) L_0)) 0.0))))
 (let (($x1458 (<= (+ (* (- 4.0) L_3) (* 4.0 A_3) S_4 ?x1426 ?x1125 ?x1427 L_0) 0.0)))
 (let (($x45189 (or $x51 (<= (+ L_1 ?x361 ?x2213 A_4 (* 3.0 S_1) ?x287) 0.0))))
 (let (($x54814 (or $x61 (= (+ L_3 ?x366 L_1 ?x361 ?x998 ?x902) 0.0) (not (<= 0.0 (+ ?x270 A_3 ?x236 A_1 ?x879 ?x972))))))
 (let (($x2202 (not $x51)))
 (let (($x119112 (or $x61 $x2202 (<= (+ ?x270 A_3 A_1 ?x879 ?x972 (* (- 1.0) L_0)) 0.0))))
 (let (($x7280 (<= (+ ?x1413 ?x1204 ?x961 ?x970 (* (- 2.0) S_3) (* 2.0 S_0)) 0.0)))
 (let (($x119652 (or $x51 (<= (+ ?x270 A_3 L_1 ?x361 (* (- 2.0) S_3) ?x2656) 0.0))))
 (let (($x57403 (or $x71 (<= (+ ?x3165 ?x2981 S_4 (* (- (/ 1.0 2.0)) L_1) (* (/ 1.0 2.0) A_1)) (- 5.0)))))
 (let (($x63285 (or $x51 (<= (+ L_3 ?x366 L_1 ?x361 ?x348 A_4 ?x2656 ?x287) 0.0))))
 (let (($x108 (>= S_1 S_0)))
 (let (($x111 (>= S_2 S_1)))
 (let (($x114 (>= S_3 S_2)))
 (let (($x119 (>= A_1 A_0)))
 (let (($x121 (>= A_3 A_2)))
 (and (<= (+ A_3 ?x270) S_4) (<= (+ A_1 ?x236) S_3) (not (<= (+ A_2 ?x253) S_3)) $x121 $x119 $x114 $x111 $x108 (or (not $x491) $x61) (or $x479 $x51) (or $x81 $x425) (or $x81 (<= (+ S_4 ?x369 L_4) (- 5.0))) (or $x51 (<= (+ L_1 ?x361 S_1) (- 5.0))) (or $x61 (<= (+ ?x236 A_1 ?x363 L_2) (- 5.0))) $x63285 (or $x71 (<= 0.0 (+ ?x270 A_3 S_3 ?x369 ?x335 L_4))) (or $x51 (<= (+ ?x961 ?x970 A_2 ?x253 S_0) (- 5.0))) (or $x51 (<= (+ ?x961 ?x970 ?x348 ?x998 ?x902 S_0) 0.0)) (or $x71 (<= (+ ?x1168 ?x1306 ?x3190 ?x976 ?x885 (* (- 2.0) S_3)) 0.0)) $x57403 (or $x71 (<= (+ ?x3165 ?x2981 S_4 ?x7368 ?x7379 ?x341) 0.0)) $x119652 (or $x51 $x7280) $x119112 (or $x61 (<= (+ ?x270 A_3 ?x348 ?x363 L_2 S_1) 0.0)) (or $x71 $x81 $x491 (= (+ ?x1413 ?x1204 ?x363 L_2 ?x369 L_4) 0.0)) (or $x71 (<= (+ L_3 ?x366 A_2 ?x253 ?x1125 S_1 L_0) 0.0)) (or $x61 (<= (+ ?x363 L_2 S_2) (- 5.0))) (or $x51 $x71 (<= 0.0 (+ ?x270 A_3 ?x236 A_1 ?x879 ?x972))) $x54814 (or $x71 (<= (+ ?x1168 ?x1306 ?x998 ?x902 S_2 ?x335) 0.0)) (or $x81 (<= ?x7091 0.0)) (or $x81 (<= (+ ?x1413 ?x1204 ?x1154 S_2 ?x335 ?x1164) 0.0)) (or $x71 $x50998) (or $x81 (<= (+ ?x270 A_3 ?x369 ?x1125 S_1 L_4 L_0) 0.0)) (or $x81 (<= (+ ?x270 A_3 L_1 ?x361 ?x369 S_2 L_4) 0.0)) $x45189 (<= (+ S_4 ?x369 L_4) 0.0) (or $x81 $x1458) (or $x71 (<= (+ ?x1168 ?x1306 ?x236 A_2 A_4 ?x287) 0.0) $x2591) (or $x61 $x2991 (<= (+ ?x270 A_3 ?x363 L_2 ?x341 S_0) 0.0)) (or $x2991 (<= (+ (* (/ 1.0 4.0) S_4) ?x341 (* (/ 3.0 4.0) S_0)) 0.0)) (or $x51 (<= (+ L_1 ?x361 A_2 ?x253 ?x341 S_0) 0.0)) (or $x2991 (<= (+ (* (/ 1.0 3.0) S_3) ?x341 (* (/ 2.0 3.0) S_0)) 0.0)) (or $x71 (<= (+ ?x1168 ?x1306 S_4 ?x348 ?x998 ?x902) 0.0)) (or $x71 $x425 (<= (+ L_3 ?x1306 A_2 ?x253 A_4) 0.0)) (or $x61 $x81 (<= (+ ?x1204 ?x363 ?x253 ?x369 L_4) 0.0) $x50998) (or $x51 $x81 (<= 0.0 (+ ?x1184 ?x1419 ?x236 A_1 ?x1190 ?x1188))) (or $x71 (<= (+ ?x1168 ?x1306 A_4 S_2 ?x287) (- 5.0))) (or $x61 (<= (+ ?x270 A_3 ?x879 ?x972 S_1) (- 5.0))) (or $x71 (<= (+ ?x1168 ?x1306 S_4 A_2 ?x253) (- 5.0))) (or $x61 (<= (+ ?x236 A_1 ?x363 L_2 ?x1125 S_1 L_0) 0.0)) $x121360 (<= (+ L_3 ?x366 S_4 ?x348 S_1) 0.0) (or $x81 (<= (+ ?x2438 ?x976 ?x885 ?x2213 ?x1154 ?x1164) 0.0)) (or $x51 $x17900) (or $x61 (<= (+ S_4 ?x976 ?x885 ?x348 ?x879 ?x972) 0.0)) (or $x71 $x10397) (or $x71 (<= (+ ?x3165 ?x2981 ?x7368 ?x7379 S_2 ?x1101) 0.0)) (or $x61 (<= (+ ?x1071 ?x1072 S_3 ?x1073 ?x1074 ?x1125 L_0) 0.0)) (or $x81 (<= (+ S_4 ?x236 A_1 ?x369 ?x341 L_4) 0.0)) (or $x81 $x11107 $x18153) (or $x81 (<= (+ ?x1071 ?x1072 ?x1240 ?x2288 ?x2317 ?x1158) 0.0) $x18153) $x123211 (or $x81 (<= (+ L_1 ?x361 S_3 A_2 ?x253 ?x369 L_4) 0.0)) (or $x51 (<= (+ L_1 ?x361 ?x348 A_2 ?x253 S_1) 0.0)) (or $x81 $x2591 (<= (+ S_4 ?x236 ?x348 A_2 ?x369 L_4) 0.0)) (or $x61 (<= (+ ?x2276 ?x2294 ?x363 L_2 ?x2307 ?x2308) 0.0)) (or $x81 $x2591 $x3671 $x18153) (or $x51 (<= (+ ?x2936 ?x2854 ?x7385 ?x7392 ?x341 S_0) 0.0)) (or $x71 (<= (+ ?x1168 ?x1306 ?x998 ?x902 S_1 ?x1101) 0.0)) (or $x81 $x1441) (or $x71 (<= (+ L_3 ?x366 ?x2656 ?x1101) (- 5.0))) $x120417 (or $x71 $x7344) (or $x71 (<= (+ L_3 ?x366 ?x236 A_1 S_1 ?x1101) 0.0)) (or $x71 (<= (+ L_3 ?x366 ?x2257 ?x2300 ?x12324 ?x12314) 0.0)) (or $x81 (<= (+ ?x1305 ?x1180 S_4 ?x1240 ?x341 ?x1158) 0.0)) (or (<= (+ ?x341 S_0) (- 5.0)) $x2991) (or $x71 (<= (+ ?x1184 ?x1419 ?x1190 S_1 ?x1188) (- 5.0))) $x54932 $x54964 $x54971 (or $x61 (<= (+ ?x976 ?x885 ?x879 ?x972 ?x1125 S_2 L_0) 0.0)) (or $x71 (<= (+ ?x1168 ?x1306 ?x998 ?x902 ?x1125 S_2 L_0) 0.0)) (or $x61 (<= (+ ?x976 ?x885 ?x879 ?x972 S_2 ?x335) 0.0)) (or $x61 (<= (+ ?x976 ?x885 S_3 ?x879 ?x972 ?x341) 0.0)) (or $x81 (<= (+ ?x3601 ?x998 ?x902 ?x1154 (* (- 2.0) S_2) ?x1164) 0.0)) (or $x61 (<= (+ ?x348 ?x19152 ?x20921 ?x5332 S_1 ?x5334) 0.0)) (or $x61 (<= (+ S_4 ?x1071 ?x1072 ?x1073 ?x1074 ?x341) 0.0)) (or $x71 (<= (+ ?x1184 ?x1419 S_4 ?x1079 ?x1080 ?x341) 0.0)) (or $x81 $x24995 $x28053) (or $x51 $x81 $x28053 $x53226) (or $x81 (<= (+ S_4 ?x998 ?x902 ?x1154 ?x1125 ?x1164 L_0) 0.0) $x28053) (or $x81 (<= (+ S_4 ?x348 A_2 ?x253 ?x369 L_4) 0.0)) $x119392 (or $x51 (<= (+ L_1 ?x361 S_0) (- 10.0))) (or $x51 (<= (+ ?x961 ?x970 S_2 S_0) (- 10.0))) (or $x71 (not $x1972) (<= (+ ?x1184 ?x1419 ?x236 A_1 ?x1190 ?x1188) (- 5.0))) (or $x81 $x54469 $x20947) (or $x81 (<= (+ S_4 ?x998 ?x902 ?x1154 ?x1125 ?x1164 L_0) 0.0) $x54469) (or $x81 $x54469 (<= (+ ?x3190 ?x961 ?x970 ?x1079 ?x1080 ?x1240 ?x1158) 0.0)) $x119508 $x119077 (or $x71 (<= (+ ?x1184 ?x1419 S_4 L_1 ?x361 ?x1079 ?x1080) 0.0)) (or $x71 (<= (+ ?x1168 ?x1306 ?x976 ?x885 ?x2761 (* (- 2.0) S_1)) 0.0)) $x121120 (or $x71 (<= (+ ?x1430 ?x1431 S_4 ?x1093 ?x1094 ?x1125 L_0) 0.0)) (or $x71 (<= (+ ?x1430 ?x1431 S_4 ?x1093 ?x1094 ?x335) 0.0)) (or $x2991 (<= (+ L_3 ?x366 S_4 ?x341 S_0) 0.0)) (or $x51 $x81 $x53226 $x55516) (or $x81 $x51795 (<= (+ ?x369 ?x1125 ?x2761 L_4 L_0) (- 5.0))) $x119613 (or $x61 (<= (+ ?x976 ?x885 ?x879 ?x972 S_1 ?x1101) 0.0)) (or $x81 (<= (+ ?x1071 ?x1072 ?x1240 ?x2288 ?x2317 ?x1158) 0.0) $x2675) (or $x81 (<= (+ ?x1413 ?x1204 S_4 ?x348 ?x1154 ?x1164) 0.0)) $x122384 $x56694 (or $x61 (<= (+ L_3 ?x366 S_4 ?x363 L_2 S_1) (- 5.0))) (or $x61 (<= (+ S_4 ?x976 ?x885 ?x1073 ?x1074) (- 5.0))) (or $x81 (<= (+ ?x1071 ?x1072 ?x1240 ?x2288 ?x2317 ?x1158) 0.0) $x2661) (or $x61 (<= (+ ?x1071 ?x1072 ?x1073 ?x1074 S_2 ?x1101) 0.0)) (or $x71 $x7419) $x60469 $x124156 $x119314 (or $x61 (<= (+ ?x363 L_2 ?x1125 ?x2656 L_0) (- 5.0))) (or $x71 (<= (+ ?x1430 ?x1431 ?x3190 ?x1085 ?x1086 (* (- 2.0) S_1)) 0.0)) (or $x71 $x7981) (or $x61 (<= (+ ?x1071 ?x1072 S_3 ?x1073 ?x1074 ?x335) 0.0)) (or $x81 (<= (+ ?x1071 ?x1072 ?x2247 ?x1240 (* (- 3.0) S_1) ?x1158) 0.0)) (or $x71 $x2991 (<= (+ L_3 ?x366 A_4 ?x341 S_0 ?x287) 0.0)) $x119924 (or $x81 $x1429) (or $x71 $x57091) (or $x71 $x55859) (or $x71 (<= (+ L_3 ?x366 L_1 ?x361 ?x2761) (- 5.0))) (or $x71 $x7541) (or $x61 $x479 (<= (+ ?x1086 S_3 ?x1087 ?x1088 ?x1101 ?x6630) 0.0)) (or $x71 (<= (+ ?x7402 ?x7403 S_4 ?x7404 ?x7405 ?x1101) 0.0)) (or $x61 $x1090) (or $x61 $x1127) (or $x61 (<= (+ ?x363 L_2 S_1) (- 10.0))) $x120541 (or $x61 $x2991 $x16802) (or $x81 $x20947 $x28053) (or $x51 $x81 $x28032 $x53226) (or $x61 (<= (+ L_3 ?x366 ?x363 L_2 A_4 S_1 ?x287) 0.0)) (or $x81 $x54469 $x26950) $x119020 (or $x61 (<= (+ L_3 ?x366 S_4 ?x236 A_1 ?x363 L_2) 0.0)) $x119015 $x122106 (or $x51 $x81 $x2661 $x53226) (or $x61 $x6508) (or $x51 $x81 $x491 $x28051 $x53226) (or $x81 $x491 $x25035 $x28051) (or $x81 $x491 $x18810 $x28051) (or $x81 $x491 $x26645 $x28051) $x123614 (or $x81 $x18112 $x54469) (or $x81 $x24534 $x54469) $x121994 (or $x81 $x18810 $x28053) (or $x81 (<= (+ ?x961 ?x970 A_2 ?x253 ?x369 ?x2761 L_4) 0.0) $x54469) $x124073 $x57652 (or $x81 (not (<= (- 10.0) (+ L_3 ?x366 S_1))) $x51701) (or $x81 (<= (+ ?x19100 ?x20914 ?x5331 ?x5358) (- 5.0))) (or $x51 $x81 $x2675 $x53226) (or $x81 (<= (+ ?x1071 ?x1072 ?x2247 ?x1240 ?x2332 ?x1158 ?x2333) 0.0)) (or $x81 $x2675 $x34678) (or $x81 $x34678 $x56398) (or $x81 $x18153 $x34678) (or $x81 $x2661 $x11107) (or $x81 $x2675 $x11107) $x120324 (or $x81 $x7133 $x56398) (or $x71 $x55809) (or $x81 $x2675 $x20947) (or $x81 $x2335 $x51795) (or $x61 $x1103) (or $x81 $x51701 $x53325) (or $x51 (<= (+ ?x961 ?x970 ?x2213 ?x1190 ?x2314 ?x1188) 0.0)) $x121796 (or $x81 $x2675 (<= (+ ?x2438 ?x1085 ?x1086 ?x1426 ?x2332 ?x1427 ?x2333) 0.0)) $x58246 $x69127 (or $x81 $x20906 $x28053) (or $x81 $x18112 $x28053) $x58349 $x120168 (or $x61 (<= (+ S_4 ?x1073 ?x1074 ?x2656) (- 15.0))) $x58538 (or $x71 (<= (+ ?x1168 ?x1306 S_4 S_2) (- 10.0))) $x58701 (or $x81 $x53325 $x56398) $x58749 $x58753 (or $x81 $x2661 $x18112) (or $x81 $x2661 $x24566) (or $x81 $x2661 $x24534) $x121279 (or $x81 $x24995 $x57298) (or $x81 $x54469 $x24995) (or $x81 $x24566 $x54469) $x120053 (or $x61 $x5199 (<= (+ L_3 ?x366 ?x15988 ?x20939 ?x17290 S_0 ?x12386) 0.0)) (or $x81 $x18153 $x53325) (or $x81 (<= (+ S_4 ?x998 ?x902 ?x1154 ?x1125 ?x1164 L_0) 0.0) $x57298) (or $x81 $x2675 $x53325) (or $x81 $x11107 $x56398) (or $x51 $x81 $x53226 $x56398) (or $x51 $x81 $x53226 $x18153) (or $x51 $x81 $x18149 $x53226) (or $x81 (<= (+ ?x1071 ?x1072 ?x1240 ?x2288 ?x2317 ?x1158) 0.0) $x56398) (or $x81 $x2591 $x3671 $x37205) (or $x81 $x2591 $x3671 $x36578) (or $x81 $x2591 $x3671 $x34895) $x59199 $x121643 $x59265 (or $x81 $x2335 $x2675) (or $x81 $x2675 $x7133) (or $x81 (<= (+ ?x2276 ?x2294 S_3 ?x2285 ?x341 ?x2292) 0.0)) (or $x71 $x1972 $x52328) (or $x81 (<= (+ ?x1305 ?x1180 ?x1240 S_2 ?x1101 ?x1158) 0.0)) (or $x81 (<= (+ ?x1413 ?x1204 ?x1154 S_1 ?x1101 ?x1164) 0.0)) (or $x81 $x18149 $x53325) (or $x81 $x18810 $x54469) (or $x81 $x2591 (<= (+ ?x976 S_3 ?x998 ?x1154 ?x1101 ?x1164) 0.0) $x54469) (or $x81 $x54469 $x20906) (or $x81 $x26645 $x54469) (or $x81 $x26950 $x57298) (or $x81 $x24534 $x58302) (or $x81 $x2675 $x20906) (or $x81 $x2661 $x34678) (or $x81 $x2661 $x53325) (or $x81 $x2675 $x26950) (or $x81 $x18149 $x34678) (or $x81 $x7133 $x18149) (or $x81 $x11107 $x18149) (or $x81 $x24566 $x28053) (or $x81 $x2591 $x28053 (<= (+ ?x976 S_3 ?x998 ?x1154 ?x1101 ?x1164) 0.0)) (or $x81 $x26950 $x37205) (or $x81 $x7133 $x18153) (or $x81 $x2675 $x18810) $x122645 (or $x61 (<= (+ ?x363 L_2 (* (/ 3.0 2.0) S_1) ?x3231) (- 5.0))) $x120579 (or $x81 $x25035 $x57298) (or $x81 $x18112 $x36578) $x120257 (or $x81 $x24566 $x58302) (or $x81 $x24566 $x36578) (or $x81 $x25035 $x54469) (or $x81 (<= (+ S_4 ?x998 ?x902 ?x1154 ?x1125 ?x1164 L_0) 0.0) $x37205) (or $x81 $x18112 $x58302) $x59908 (or $x81 $x20947 $x37205) (or $x81 $x25035 $x28053) (or $x81 $x18810 $x34895) (or $x81 $x2675 (<= (+ S_4 ?x998 ?x902 ?x1154 ?x1125 ?x1164 L_0) 0.0)) (or $x81 $x20947 $x57298) (or $x81 $x2675 $x24995) (or $x81 $x24995 $x37205) (or $x81 $x20906 $x57298) (or $x81 $x20906 $x57893) (or $x81 $x26645 $x57893) (or $x81 $x26645 $x34895) (or $x81 $x2675 $x26645) (or $x81 $x26645 $x57298) (or $x81 $x26645 $x37205) (or $x81 $x20906 $x37205) (or $x81 $x25035 $x37205) (or $x81 $x2675 $x25035) (or $x81 $x18810 $x57893) $x60064 (or $x81 $x2591 $x2661 $x3671) (or $x81 $x2591 $x2661 (<= (+ ?x976 S_3 ?x998 ?x1154 ?x1101 ?x1164) 0.0)) (or $x81 $x2661 $x18810) (or $x81 $x25035 $x58302) (or $x81 $x491 $x20906 $x28051) (or $x81 $x20906 $x34895) (or $x81 $x18149 $x20906) (or $x81 $x18153 $x20906) (or $x81 $x18810 $x57298) (or $x81 $x18810 $x58302) (or $x81 $x18810 $x36578) (or $x81 $x18810 $x37205) (or $x81 $x24534 $x36578) (or $x81 $x25035 $x34895) (or $x81 $x25035 $x36578) (or $x81 $x26645 $x36578) (or $x81 $x2661 $x26645) (or $x81 $x26645 $x58302) (or $x81 $x2661 $x25035) (or $x81 $x2591 $x3671 $x56398) (or $x81 $x25035 $x57893) (or $x81 $x51701 (<= (+ ?x369 S_2 L_4) (- 15.0))) (or $x81 $x20906 $x56398) (or $x81 $x18153 $x25035) (or $x81 $x18149 $x18810) (or $x81 $x25035 $x56398) (or $x81 $x18149 $x25035) (or $x81 $x18810 $x56398) $x60375 (or $x81 $x18153 $x18810) $x34 (<= (+ ?x348 S_1) (- 5.0)) (<= (+ ?x1125 S_0 L_0) 0.0) (<= (+ ?x348 (* (/ 3.0 2.0) S_1) ?x3231) 0.0) (<= (+ L_1 ?x361 S_1) 0.0) (<= (+ (* (/ 1.0 3.0) S_4) ?x348 (* (/ 2.0 3.0) S_1)) 0.0) $x2877)))))))))))))))))))))))))))))))))))))))))))))))))))))))))))))))))))))))))))))))))))))))))))))))))))))))))))))))))))))))))))))))))))))))))))))))))))))))))))))))))))))))))))))))))))))))))))))))))))))))))))))))))))))))))))))))))))))))))))))))))))))))))))))
(check-sat)
