qe/outputs/qe/cbrdelay_obs_newl/T=5,eliminate=[I_0,I_1,I_2,I_3,I_4,C,B,lhs=L_4],pl=2.smt2.z3
[And(A_3 + -1*L_3 <= S_4,
     A_1 + -1*L_1 <= S_3,
     Not(A_2 + -1*L_2 <= S_3),
     A_3 >= A_2,
     A_1 >= A_0,
     S_3 >= S_2,
     S_2 >= S_1,
     S_1 >= S_0,
     Or(Not(0 <= L_1 + -1*L_2), L_2 == L_1),
     Or(Not(0 <= -1*L_1 + L_0), L_1 == L_0),
     Or(L_4 == L_3, Not(0 <= L_3 + -1*L_4)),
     Or(L_4 == L_3, S_4 + -1*A_4 + L_4 <= -5),
     Or(L_1 == L_0, L_1 + -1*A_1 + S_1 <= -5),
     Or(L_2 == L_1, -1*L_1 + A_1 + -1*A_2 + L_2 <= -5),
     Or(L_1 == L_0,
        L_3 +
        -1*A_3 +
        L_1 +
        -1*A_1 +
        -1*S_3 +
        A_4 +
        2*S_1 +
        -1*L_4 <=
        0),
     Or(L_3 == L_2,
        0 <= -1*L_3 + A_3 + S_3 + -1*A_4 + -1*S_1 + L_4),
     Or(L_1 == L_0,
        2*L_1 + -2*A_1 + A_2 + -1*L_2 + S_0 <= -5),
     Or(L_1 == L_0,
        2*L_1 + -2*A_1 + -1*S_3 + 2*A_2 + -2*L_2 + S_0 <= 0),
     Or(L_3 == L_2,
        2*L_3 + -2*A_3 + 2*S_4 + -2*L_1 + 2*A_1 + -2*S_3 <=
        0),
     Or(L_3 == L_2,
        (3/2)*L_3 +
        -(3/2)*A_3 +
        S_4 +
        -(1/2)*L_1 +
        (1/2)*A_1 <=
        -5),
     Or(L_3 == L_2,
        (3/2)*L_3 +
        -(3/2)*A_3 +
        S_4 +
        -(3/2)*L_1 +
        (3/2)*A_1 +
        -1*S_2 <=
        0),
     Or(L_1 == L_0,
        -1*L_3 + A_3 + L_1 + -1*A_1 + -2*S_3 + 2*S_1 <= 0),
     Or(L_1 == L_0,
        -2*L_3 + 2*A_3 + 2*L_1 + -2*A_1 + -2*S_3 + 2*S_0 <=
        0),
     Or(L_2 == L_1,
        Not(L_1 == L_0),
        -1*L_3 + A_3 + A_1 + -2*A_2 + 2*L_2 + -1*L_0 <= 0),
     Or(L_2 == L_1,
        -1*L_3 + A_3 + -1*S_3 + -1*A_2 + L_2 + S_1 <= 0),
     Or(L_3 == L_2,
        L_4 == L_3,
        0 <= L_1 + -1*L_2,
        -2*L_3 + 2*A_3 + -1*A_2 + L_2 + -1*A_4 + L_4 == 0),
     Or(L_3 == L_2,
        L_3 + -1*A_3 + A_2 + -1*L_2 + -1*A_0 + S_1 + L_0 <=
        0),
     Or(L_2 == L_1, -1*A_2 + L_2 + S_2 <= -5),
     Or(L_1 == L_0,
        L_3 == L_2,
        0 <= -1*L_3 + A_3 + -1*L_1 + A_1 + -2*A_2 + 2*L_2),
     Or(L_2 == L_1,
        L_3 + -1*A_3 + L_1 + -1*A_1 + 2*A_2 + -2*L_2 == 0,
        Not(0 <=
            -1*L_3 + A_3 + -1*L_1 + A_1 + -2*A_2 + 2*L_2)),
     Or(L_3 == L_2,
        2*L_3 + -2*A_3 + 2*A_2 + -2*L_2 + S_2 + -1*S_1 <= 0),
     Or(L_4 == L_3,
        -2*L_3 + 2*A_3 + -2*A_4 + -1*A_0 + S_2 + 2*L_4 + L_0 <=
        0),
     Or(L_4 == L_3,
        -2*L_3 + 2*A_3 + -2*A_4 + S_2 + -1*S_1 + 2*L_4 <= 0),
     Or(L_3 == L_2, Not(0 <= -1*L_3 + L_2)),
     Or(L_4 == L_3,
        -1*L_3 + A_3 + -1*A_4 + -1*A_0 + S_1 + L_4 + L_0 <=
        0),
     Or(L_4 == L_3,
        -1*L_3 + A_3 + L_1 + -1*A_1 + -1*A_4 + S_2 + L_4 <=
        0),
     Or(L_1 == L_0,
        L_1 + -1*A_1 + -3*S_3 + A_4 + 3*S_1 + -1*L_4 <= 0),
     S_4 + -1*A_4 + L_4 <= 0,
     Or(L_4 == L_3,
        -4*L_3 + 4*A_3 + S_4 + -4*A_4 + -1*A_0 + 4*L_4 + L_0 <=
        0),
     Or(L_3 == L_2,
        2*L_3 + -2*A_3 + -1*L_1 + A_2 + A_4 + -1*L_4 <= 0,
        Not(L_2 == L_1)),
     Or(L_2 == L_1,
        -1*L_1 + A_1 + -1*S_2 <= 0,
        -1*L_3 + A_3 + -1*A_2 + L_2 + -1*S_2 + S_0 <= 0),
     Or(-1*L_1 + A_1 + -1*S_2 <= 0,
        (1/4)*S_4 + -1*S_2 + (3/4)*S_0 <= 0),
     Or(L_1 == L_0,
        L_1 + -1*A_1 + A_2 + -1*L_2 + -1*S_2 + S_0 <= 0),
     Or(-1*L_1 + A_1 + -1*S_2 <= 0,
        (1/3)*S_3 + -1*S_2 + (2/3)*S_0 <= 0),
     Or(L_3 == L_2,
        2*L_3 + -2*A_3 + S_4 + -1*S_3 + 2*A_2 + -2*L_2 <= 0),
     Or(L_3 == L_2,
        Not(0 <= L_3 + -1*L_4),
        L_3 + -2*A_3 + A_2 + -1*L_2 + A_4 <= 0),
     Or(L_2 == L_1,
        L_4 == L_3,
        2*A_3 + -1*A_2 + -1*L_2 + -1*A_4 + L_4 <= 0,
        Not(0 <= -1*L_3 + L_2)),
     Or(L_1 == L_0,
        L_4 == L_3,
        0 <= 3*L_3 + -3*A_3 + -1*L_1 + A_1 + 2*A_4 + -2*L_4),
     Or(L_3 == L_2,
        2*L_3 + -2*A_3 + A_4 + S_2 + -1*L_4 <= -5),
     Or(L_2 == L_1,
        -1*L_3 + A_3 + -2*A_2 + 2*L_2 + S_1 <= -5),
     Or(L_3 == L_2,
        2*L_3 + -2*A_3 + S_4 + A_2 + -1*L_2 <= -5),
     Or(L_2 == L_1,
        -1*L_1 + A_1 + -1*A_2 + L_2 + -1*A_0 + S_1 + L_0 <=
        0),
     Or(L_2 == L_1,
        Not(0 <= -1*L_1 + L_0),
        3*A_1 + S_3 + -3*A_2 + 3*L_2 + -1*A_0 + -2*L_0 <= 0),
     L_3 + -1*A_3 + S_4 + -1*S_3 + S_1 <= 0,
     Or(L_4 == L_3,
        3*S_4 + -2*L_1 + 2*A_1 + -3*S_3 + -2*A_4 + 2*L_4 <=
        0),
     Or(L_1 == L_0,
        (1/3)*L_1 +
        -(1/3)*A_1 +
        (1/3)*A_4 +
        -1*S_2 +
        S_0 +
        -(1/3)*L_4 <=
        0),
     Or(L_2 == L_1,
        S_4 + -2*L_1 + 2*A_1 + -1*S_3 + -2*A_2 + 2*L_2 <= 0),
     Or(L_3 == L_2,
        2*L_3 +
        -2*A_3 +
        -2*L_1 +
        2*A_1 +
        -2*A_0 +
        2*S_2 +
        2*L_0 <=
        0),
     Or(L_3 == L_2,
        (3/2)*L_3 +
        -(3/2)*A_3 +
        -(3/2)*L_1 +
        (3/2)*A_1 +
        S_2 +
        -1*S_0 <=
        0),
     Or(L_2 == L_1,
        -3*L_1 + 3*A_1 + S_3 + -3*A_2 + 3*L_2 + -1*A_0 + L_0 <=
        0),
     Or(L_4 == L_3,
        S_4 + -1*L_1 + A_1 + -1*A_4 + -1*S_2 + L_4 <= 0),
     Or(L_4 == L_3,
        3*S_4 + -5*L_1 + 5*A_1 + -5*A_4 + -3*S_0 + 5*L_4 <=
        0,
        -3*L_3 +
        3*A_3 +
        -3*L_1 +
        3*A_1 +
        -1*S_3 +
        -3*A_4 +
        -2*S_0 +
        3*L_4 <=
        0),
     Or(L_4 == L_3,
        -3*L_1 + 3*A_1 + -3*A_4 + 3*S_2 + -3*S_0 + 3*L_4 <=
        0,
        -3*L_3 +
        3*A_3 +
        -3*L_1 +
        3*A_1 +
        -1*S_3 +
        -3*A_4 +
        -2*S_0 +
        3*L_4 <=
        0),
     Or(L_2 == L_1,
        Not(L_4 == L_3),
        -1*L_3 + -2*S_3 + -1*A_2 + L_2 + A_4 + 2*S_1 <= 0),
     Or(L_4 == L_3,
        L_1 + -1*A_1 + S_3 + A_2 + -1*L_2 + -1*A_4 + L_4 <=
        0),
     Or(L_1 == L_0,
        L_1 + -1*A_1 + -1*S_3 + A_2 + -1*L_2 + S_1 <= 0),
     Or(L_4 == L_3,
        Not(L_2 == L_1),
        S_4 + -1*L_1 + -1*S_3 + A_2 + -1*A_4 + L_4 <= 0),
...